25° run output:
{
    "Function": "kroB300.tsp",
    "Problem dimension": [
        14,
        5,
        158,
        233,
        134,
        37,
        46,
        69,
        189,
        110,
        106,
        63,
        215,
        203,
        199,
        186,
        30,
        12,
        283,
        98,
        256,
        269,
        8,
        137,
        107,
        156,
        144,
        109,
        246,
        116,
        38,
        11,
        220,
        223,
        121,
        128,
        299,
        248,
        292,
        235,
        88,
        265,
        113,
        245,
        185,
        42,
        118,
        59,
        94,
        293,
        281,
        149,
        259,
        26,
        132,
        93,
        230,
        4,
        66,
        72,
        175,
        236,
        285,
        289,
        111,
        274,
        290,
        273,
        55,
        92,
        84,
        7,
        216,
        234,
        222,
        209,
        79,
        136,
        279,
        275,
        249,
        208,
        123,
        250,
        167,
        32,
        295,
        50,
        82,
        213,
        117,
        73,
        207,
        266,
        17,
        49,
        115,
        100,
        277,
        270,
        280,
        65,
        288,
        112,
        204,
        27,
        89,
        58,
        180,
        56,
        164,
        168,
        178,
        192,
        152,
        276,
        87,
        169,
        188,
        20,
        260,
        103,
        228,
        182,
        239,
        78,
        243,
        147,
        15,
        206,
        124,
        262,
        60,
        232,
        54,
        284,
        162,
        33,
        140,
        255,
        141,
        145,
        57,
        226,
        205,
        105,
        219,
        119,
        171,
        174,
        75,
        96,
        157,
        81,
        212,
        154,
        264,
        125,
        155,
        120,
        0,
        244,
        61,
        126,
        133,
        64,
        29,
        165,
        221,
        62,
        161,
        181,
        241,
        287,
        114,
        138,
        252,
        143,
        153,
        240,
        24,
        231,
        160,
        19,
        31,
        286,
        77,
        191,
        1,
        267,
        35,
        201,
        76,
        23,
        159,
        272,
        214,
        242,
        6,
        179,
        135,
        217,
        53,
        122,
        9,
        51,
        296,
        47,
        258,
        74,
        196,
        68,
        263,
        190,
        142,
        297,
        254,
        104,
        170,
        257,
        298,
        278,
        86,
        177,
        282,
        200,
        172,
        146,
        108,
        95,
        101,
        91,
        150,
        187,
        197,
        224,
        176,
        183,
        21,
        36,
        102,
        291,
        44,
        41,
        237,
        129,
        18,
        45,
        139,
        3,
        225,
        16,
        40,
        43,
        195,
        268,
        28,
        130,
        238,
        52,
        10,
        2,
        247,
        218,
        194,
        127,
        13,
        83,
        184,
        202,
        22,
        227,
        271,
        48,
        163,
        294,
        211,
        67,
        198,
        34,
        85,
        90,
        166,
        210,
        71,
        151,
        99,
        131,
        148,
        193,
        251,
        25,
        39,
        253,
        173,
        80,
        229,
        261,
        97,
        70
    ],
    "Global Optimum": 0,
    "Algorithm": "Genetic algorithm",
    "Parameters": {
        "population": 30,
        "offspring": 30,
        "mutation probability": 0.0033333333333333335,
        "crossover probability": 0.9
    },
    "Fitness": 295003,
    "Solution": [
        14,
        5,
        158,
        233,
        134,
        37,
        46,
        69,
        189,
        110,
        106,
        63,
        215,
        203,
        199,
        186,
        30,
        12,
        283,
        98,
        256,
        269,
        8,
        137,
        107,
        156,
        144,
        109,
        246,
        116,
        38,
        11,
        220,
        223,
        121,
        128,
        299,
        248,
        292,
        235,
        88,
        265,
        113,
        245,
        185,
        42,
        118,
        59,
        94,
        293,
        281,
        149,
        259,
        26,
        132,
        93,
        230,
        4,
        66,
        72,
        175,
        236,
        285,
        289,
        111,
        274,
        290,
        273,
        55,
        92,
        84,
        7,
        216,
        234,
        222,
        209,
        79,
        136,
        279,
        275,
        249,
        208,
        123,
        250,
        167,
        32,
        295,
        50,
        82,
        213,
        117,
        73,
        207,
        266,
        17,
        49,
        115,
        100,
        277,
        270,
        280,
        65,
        288,
        112,
        204,
        27,
        89,
        58,
        180,
        56,
        164,
        168,
        178,
        192,
        152,
        276,
        87,
        169,
        188,
        20,
        260,
        103,
        228,
        182,
        239,
        78,
        243,
        147,
        15,
        206,
        124,
        262,
        60,
        232,
        54,
        284,
        162,
        33,
        140,
        255,
        141,
        145,
        57,
        226,
        205,
        105,
        219,
        119,
        171,
        174,
        75,
        96,
        157,
        81,
        212,
        154,
        264,
        125,
        155,
        120,
        0,
        244,
        61,
        126,
        133,
        64,
        29,
        165,
        221,
        62,
        161,
        181,
        241,
        287,
        114,
        138,
        252,
        143,
        153,
        240,
        24,
        231,
        160,
        19,
        31,
        286,
        77,
        191,
        1,
        267,
        35,
        201,
        76,
        23,
        159,
        272,
        214,
        242,
        6,
        179,
        135,
        217,
        53,
        122,
        9,
        51,
        296,
        47,
        258,
        74,
        196,
        68,
        263,
        190,
        142,
        297,
        254,
        104,
        170,
        257,
        298,
        278,
        86,
        177,
        282,
        200,
        172,
        146,
        108,
        95,
        101,
        91,
        150,
        187,
        197,
        224,
        176,
        183,
        21,
        36,
        102,
        291,
        44,
        41,
        237,
        129,
        18,
        45,
        139,
        3,
        225,
        16,
        40,
        43,
        195,
        268,
        28,
        130,
        238,
        52,
        10,
        2,
        247,
        218,
        194,
        127,
        13,
        83,
        184,
        202,
        22,
        227,
        271,
        48,
        163,
        294,
        211,
        67,
        198,
        34,
        85,
        90,
        166,
        210,
        71,
        151,
        99,
        131,
        148,
        193,
        251,
        25,
        39,
        253,
        173,
        80,
        229,
        261,
        97,
        70
    ],
    "Nb of functions evaluations": 200010,
    "Computational time in seconds": 333.89593863487244,
    "Stopping criterion in evaluations": 200000
}